; DUP2 MLOAD DUP3 SWAP1 PUSH cw_1 SWAP1 => DUP2 PUSH cw_1 DUP4 MLOAD
(set-option :produce-proofs true)
; 
(set-info :status unknown)
(declare-fun storage_t ((_ BitVec 256) (_ BitVec 256) (_ BitVec 256) (_ BitVec 256) Int (_ BitVec 256)) (_ BitVec 256))
(declare-fun w_1 () (_ BitVec 256))
(declare-fun storage_s ((_ BitVec 256) (_ BitVec 256) (_ BitVec 256) (_ BitVec 256) Int (_ BitVec 256)) (_ BitVec 256))
(declare-fun exc_halt_t (Int) Bool)
(declare-fun exc_halt_s (Int) Bool)
(declare-fun stack_t ((_ BitVec 256) (_ BitVec 256) (_ BitVec 256) (_ BitVec 256) Int (_ BitVec 6)) (_ BitVec 256))
(declare-fun stack_s ((_ BitVec 256) (_ BitVec 256) (_ BitVec 256) (_ BitVec 256) Int (_ BitVec 6)) (_ BitVec 256))
(declare-fun sc_t (Int) (_ BitVec 6))
(declare-fun sc_s (Int) (_ BitVec 6))
(declare-fun used_gas_t ((_ BitVec 256) (_ BitVec 256) (_ BitVec 256) (_ BitVec 256) Int) Int)
(declare-fun used_gas_s ((_ BitVec 256) (_ BitVec 256) (_ BitVec 256) (_ BitVec 256) Int) Int)
(declare-fun f_MLOAD ((_ BitVec 256) (_ BitVec 256) (_ BitVec 256) (_ BitVec 256) (_ BitVec 256)) (_ BitVec 256))
(assert
 (exists ((x_0 (_ BitVec 256)) (x_1 (_ BitVec 256)) (x_MLOAD_0 (_ BitVec 256)) )(let (($x12004 (forall ((w (_ BitVec 256)) )(let ((?x2120 (storage_t x_0 x_1 w_1 x_MLOAD_0 4 w)))
 (let ((?x10403 (storage_s x_0 x_1 w_1 x_MLOAD_0 6 w)))
 (= ?x10403 ?x2120))))
 ))
 (let (($x7854 (exc_halt_t 4)))
 (let (($x772 (exc_halt_s 6)))
 (let (($x4404 (= $x772 $x7854)))
 (let (($x2821 (forall ((n (_ BitVec 6)) )(let ((?x5296 (stack_t x_0 x_1 w_1 x_MLOAD_0 4 n)))
 (let ((?x5631 (stack_s x_0 x_1 w_1 x_MLOAD_0 6 n)))
 (let (($x5087 (= ?x5631 ?x5296)))
 (let ((?x7495 (sc_t 4)))
 (let (($x4797 (bvsle ?x7495 n)))
 (or $x4797 $x5087)))))))
 ))
 (let ((?x7495 (sc_t 4)))
 (let ((?x926 (sc_s 6)))
 (let (($x3744 (= ?x926 ?x7495)))
 (let ((?x7899 (used_gas_t x_0 x_1 w_1 x_MLOAD_0 0)))
 (let ((?x2547 (used_gas_s x_0 x_1 w_1 x_MLOAD_0 0)))
 (let (($x8765 (= ?x2547 ?x7899)))
 (let (($x10287 (forall ((w (_ BitVec 256)) )(let ((?x11076 (storage_t x_0 x_1 w_1 x_MLOAD_0 0 w)))
 (let ((?x8499 (storage_s x_0 x_1 w_1 x_MLOAD_0 0 w)))
 (= ?x8499 ?x11076))))
 ))
 (let (($x56 (exc_halt_t 0)))
 (let (($x57 (exc_halt_s 0)))
 (let (($x58 (= $x57 $x56)))
 (let (($x11050 (forall ((n (_ BitVec 6)) )(let ((?x11569 (stack_t x_0 x_1 w_1 x_MLOAD_0 0 n)))
 (let ((?x7684 (stack_s x_0 x_1 w_1 x_MLOAD_0 0 n)))
 (let (($x10409 (= ?x7684 ?x11569)))
 (let ((?x63 (sc_t 0)))
 (let (($x848 (bvsle ?x63 n)))
 (or $x848 $x10409)))))))
 ))
 (let ((?x63 (sc_t 0)))
 (let ((?x72 (sc_s 0)))
 (let (($x73 (= ?x72 ?x63)))
 (let (($x10723 (= $x7854 (or (exc_halt_t 3) (not (bvsle (_ bv0 6) (bvadd (_ bv63 6) (sc_t 3))))))))
 (let (($x273 (forall ((w (_ BitVec 256)) )(let ((?x5833 (storage_t x_0 x_1 w_1 x_MLOAD_0 3 w)))
 (let ((?x2120 (storage_t x_0 x_1 w_1 x_MLOAD_0 4 w)))
 (= ?x2120 ?x5833))))
 ))
 (let (($x8177 (forall ((n (_ BitVec 6)) )(let ((?x7799 (stack_t x_0 x_1 w_1 x_MLOAD_0 3 n)))
 (let ((?x5296 (stack_t x_0 x_1 w_1 x_MLOAD_0 4 n)))
 (let ((?x11964 (sc_t 3)))
 (let ((?x5761 (bvadd (_ bv63 6) ?x11964)))
 (let (($x4760 (bvsle ?x5761 n)))
 (or $x4760 (= ?x5296 ?x7799))))))))
 ))
 (let ((?x11964 (sc_t 3)))
 (let (($x11441 (= ?x7495 ?x11964)))
 (let (($x3257 (= (used_gas_t x_0 x_1 w_1 x_MLOAD_0 4) (+ 3 (used_gas_t x_0 x_1 w_1 x_MLOAD_0 3)))))
 (let ((?x5761 (bvadd (_ bv63 6) ?x11964)))
 (let ((?x9006 (stack_t x_0 x_1 w_1 x_MLOAD_0 3 ?x5761)))
 (let (($x8196 (= (stack_t x_0 x_1 w_1 x_MLOAD_0 4 (bvadd (_ bv63 6) ?x7495)) (f_MLOAD x_0 x_1 w_1 x_MLOAD_0 ?x9006))))
 (let (($x8829 (not (bvsle (_ bv0 6) (bvadd (_ bv60 6) (sc_t 2))))))
 (let (($x8412 (exc_halt_t 2)))
 (let (($x2655 (not (= ((_ extract 6 6) (bvadd (_ bv1 7) (concat (_ bv0 1) (sc_t 2)))) (_ bv0 1)))))
 (let (($x4112 (exc_halt_t 3)))
 (let (($x1183 (forall ((w (_ BitVec 256)) )(let ((?x878 (storage_t x_0 x_1 w_1 x_MLOAD_0 2 w)))
 (let ((?x5833 (storage_t x_0 x_1 w_1 x_MLOAD_0 3 w)))
 (= ?x5833 ?x878))))
 ))
 (let (($x7236 (forall ((n (_ BitVec 6)) )(let ((?x658 (stack_t x_0 x_1 w_1 x_MLOAD_0 2 n)))
 (let ((?x7799 (stack_t x_0 x_1 w_1 x_MLOAD_0 3 n)))
 (let ((?x11248 (sc_t 2)))
 (let ((?x10779 (bvadd (_ bv60 6) ?x11248)))
 (let (($x198 (bvsle ?x10779 n)))
 (or $x198 (= ?x7799 ?x658))))))))
 ))
 (let (($x11439 (= ?x11964 (bvadd (_ bv1 6) (sc_t 2)))))
 (let ((?x7065 (used_gas_t x_0 x_1 w_1 x_MLOAD_0 3)))
 (let (($x3597 (= (stack_t x_0 x_1 w_1 x_MLOAD_0 3 (bvadd (_ bv63 6) (sc_t 2))) (stack_t x_0 x_1 w_1 x_MLOAD_0 2 (bvadd (_ bv63 6) (sc_t 2))))))
 (let (($x8184 (= (stack_t x_0 x_1 w_1 x_MLOAD_0 3 (bvadd (_ bv62 6) (sc_t 2))) (stack_t x_0 x_1 w_1 x_MLOAD_0 2 (bvadd (_ bv62 6) (sc_t 2))))))
 (let (($x3456 (= (stack_t x_0 x_1 w_1 x_MLOAD_0 3 (bvadd (_ bv61 6) (sc_t 2))) (stack_t x_0 x_1 w_1 x_MLOAD_0 2 (bvadd (_ bv61 6) (sc_t 2))))))
 (let ((?x11248 (sc_t 2)))
 (let ((?x10779 (bvadd (_ bv60 6) ?x11248)))
 (let ((?x6925 (stack_t x_0 x_1 w_1 x_MLOAD_0 2 ?x10779)))
 (let (($x2931 (not (= ((_ extract 6 6) (bvadd (_ bv1 7) (concat (_ bv0 1) (sc_t 1)))) (_ bv0 1)))))
 (let (($x4852 (exc_halt_t 1)))
 (let (($x2907 (= $x8412 (or $x4852 $x2931))))
 (let (($x11355 (forall ((w (_ BitVec 256)) )(let ((?x2891 (storage_t x_0 x_1 w_1 x_MLOAD_0 1 w)))
 (let ((?x878 (storage_t x_0 x_1 w_1 x_MLOAD_0 2 w)))
 (= ?x878 ?x2891))))
 ))
 (let (($x8423 (forall ((n (_ BitVec 6)) )(let ((?x9666 (sc_t 1)))
 (let (($x12002 (bvsle ?x9666 n)))
 (let ((?x2733 (stack_t x_0 x_1 w_1 x_MLOAD_0 1 n)))
 (let ((?x658 (stack_t x_0 x_1 w_1 x_MLOAD_0 2 n)))
 (or (= ?x658 ?x2733) $x12002))))))
 ))
 (let (($x3033 (= ?x11248 (bvadd (_ bv1 6) (sc_t 1)))))
 (let ((?x7896 (used_gas_t x_0 x_1 w_1 x_MLOAD_0 2)))
 (let (($x5945 (not (= ((_ extract 6 6) (bvadd (_ bv1 7) (concat (_ bv0 1) ?x63))) (_ bv0 1)))))
 (let (($x2005 (forall ((w (_ BitVec 256)) )(let ((?x11076 (storage_t x_0 x_1 w_1 x_MLOAD_0 0 w)))
 (let ((?x2891 (storage_t x_0 x_1 w_1 x_MLOAD_0 1 w)))
 (= ?x2891 ?x11076))))
 ))
 (let (($x11728 (forall ((n (_ BitVec 6)) )(let ((?x11569 (stack_t x_0 x_1 w_1 x_MLOAD_0 0 n)))
 (let ((?x2733 (stack_t x_0 x_1 w_1 x_MLOAD_0 1 n)))
 (or (bvsle (bvadd (_ bv62 6) (sc_t 0)) n) (= ?x2733 ?x11569)))))
 ))
 (let ((?x9666 (sc_t 1)))
 (let (($x7751 (= ?x9666 (bvadd (_ bv1 6) ?x63))))
 (let (($x8625 (= (stack_t x_0 x_1 w_1 x_MLOAD_0 1 (bvadd (_ bv63 6) ?x63)) (stack_t x_0 x_1 w_1 x_MLOAD_0 0 (bvadd (_ bv63 6) ?x63)))))
 (let ((?x2527 (bvadd (_ bv62 6) ?x63)))
 (let ((?x7893 (stack_t x_0 x_1 w_1 x_MLOAD_0 0 ?x2527)))
 (let (($x2890 (= $x772 (or (exc_halt_s 5) (not (bvsle (_ bv0 6) (bvadd (_ bv62 6) (sc_s 5))))))))
 (let (($x3209 (forall ((w (_ BitVec 256)) )(let ((?x1143 (storage_s x_0 x_1 w_1 x_MLOAD_0 5 w)))
 (let ((?x10403 (storage_s x_0 x_1 w_1 x_MLOAD_0 6 w)))
 (= ?x10403 ?x1143))))
 ))
 (let (($x6534 (forall ((n (_ BitVec 6)) )(let ((?x4319 (sc_s 5)))
 (let ((?x2001 (bvadd (_ bv62 6) ?x4319)))
 (let (($x7081 (bvsle ?x2001 n)))
 (let ((?x2524 (stack_s x_0 x_1 w_1 x_MLOAD_0 5 n)))
 (let ((?x5631 (stack_s x_0 x_1 w_1 x_MLOAD_0 6 n)))
 (or (= ?x5631 ?x2524) $x7081)))))))
 ))
 (let (($x8941 (= (used_gas_s x_0 x_1 w_1 x_MLOAD_0 6) (+ 3 (used_gas_s x_0 x_1 w_1 x_MLOAD_0 5)))))
 (let (($x9192 (= (stack_s x_0 x_1 w_1 x_MLOAD_0 6 (bvadd (_ bv62 6) ?x926)) (stack_s x_0 x_1 w_1 x_MLOAD_0 5 (bvadd (_ bv63 6) (sc_s 5))))))
 (let (($x9235 (= (stack_s x_0 x_1 w_1 x_MLOAD_0 6 (bvadd (_ bv63 6) ?x926)) (stack_s x_0 x_1 w_1 x_MLOAD_0 5 (bvadd (_ bv62 6) (sc_s 5))))))
 (let (($x6865 (not (= ((_ extract 6 6) (bvadd (_ bv1 7) (concat (_ bv0 1) (sc_s 4)))) (_ bv0 1)))))
 (let (($x9175 (exc_halt_s 4)))
 (let (($x1862 (exc_halt_s 5)))
 (let (($x4445 (forall ((w (_ BitVec 256)) )(let ((?x4788 (storage_s x_0 x_1 w_1 x_MLOAD_0 4 w)))
 (let ((?x1143 (storage_s x_0 x_1 w_1 x_MLOAD_0 5 w)))
 (= ?x1143 ?x4788))))
 ))
 (let (($x2646 (forall ((n (_ BitVec 6)) )(let ((?x10100 (stack_s x_0 x_1 w_1 x_MLOAD_0 4 n)))
 (let ((?x2524 (stack_s x_0 x_1 w_1 x_MLOAD_0 5 n)))
 (or (bvsle (sc_s 4) n) (= ?x2524 ?x10100)))))
 ))
 (let ((?x4319 (sc_s 5)))
 (let (($x891 (= ?x4319 (bvadd (_ bv1 6) (sc_s 4)))))
 (let ((?x5726 (used_gas_s x_0 x_1 w_1 x_MLOAD_0 5)))
 (let (($x4038 (= $x9175 (or (exc_halt_s 3) (not (bvsle (_ bv0 6) (bvadd (_ bv62 6) (sc_s 3))))))))
 (let (($x1877 (forall ((w (_ BitVec 256)) )(let ((?x5980 (storage_s x_0 x_1 w_1 x_MLOAD_0 3 w)))
 (let ((?x4788 (storage_s x_0 x_1 w_1 x_MLOAD_0 4 w)))
 (= ?x4788 ?x5980))))
 ))
 (let (($x1489 (forall ((n (_ BitVec 6)) )(let ((?x2475 (stack_s x_0 x_1 w_1 x_MLOAD_0 3 n)))
 (let ((?x10100 (stack_s x_0 x_1 w_1 x_MLOAD_0 4 n)))
 (let ((?x3851 (sc_s 3)))
 (let ((?x10545 (bvadd (_ bv62 6) ?x3851)))
 (let (($x5274 (bvsle ?x10545 n)))
 (or $x5274 (= ?x10100 ?x2475))))))))
 ))
 (let ((?x3851 (sc_s 3)))
 (let ((?x9433 (sc_s 4)))
 (let (($x1714 (= ?x9433 ?x3851)))
 (let ((?x7255 (used_gas_s x_0 x_1 w_1 x_MLOAD_0 4)))
 (let ((?x11204 (bvadd (_ bv63 6) ?x3851)))
 (let ((?x1580 (stack_s x_0 x_1 w_1 x_MLOAD_0 3 ?x11204)))
 (let (($x7338 (= (stack_s x_0 x_1 w_1 x_MLOAD_0 4 (bvadd (_ bv63 6) ?x9433)) (stack_s x_0 x_1 w_1 x_MLOAD_0 3 (bvadd (_ bv62 6) ?x3851)))))
 (let (($x10052 (exc_halt_s 2)))
 (let (($x8424 (not (= ((_ extract 6 6) (bvadd (_ bv1 7) (concat (_ bv0 1) (sc_s 2)))) (_ bv0 1)))))
 (let (($x8103 (exc_halt_s 3)))
 (let (($x11077 (forall ((w (_ BitVec 256)) )(let ((?x4391 (storage_s x_0 x_1 w_1 x_MLOAD_0 2 w)))
 (let ((?x5980 (storage_s x_0 x_1 w_1 x_MLOAD_0 3 w)))
 (= ?x5980 ?x4391))))
 ))
 (let (($x4559 (forall ((n (_ BitVec 6)) )(let ((?x6361 (stack_s x_0 x_1 w_1 x_MLOAD_0 2 n)))
 (let ((?x2475 (stack_s x_0 x_1 w_1 x_MLOAD_0 3 n)))
 (or (bvsle (bvadd (_ bv61 6) (sc_s 2)) n) (= ?x2475 ?x6361)))))
 ))
 (let (($x11788 (= ?x3851 (bvadd (_ bv1 6) (sc_s 2)))))
 (let ((?x3298 (used_gas_s x_0 x_1 w_1 x_MLOAD_0 3)))
 (let ((?x2272 (sc_s 2)))
 (let ((?x6147 (bvadd (_ bv63 6) ?x2272)))
 (let ((?x10644 (stack_s x_0 x_1 w_1 x_MLOAD_0 2 ?x6147)))
 (let (($x16 (= (stack_s x_0 x_1 w_1 x_MLOAD_0 3 (bvadd (_ bv62 6) ?x2272)) (stack_s x_0 x_1 w_1 x_MLOAD_0 2 (bvadd (_ bv62 6) ?x2272)))))
 (let ((?x7475 (bvadd (_ bv61 6) ?x2272)))
 (let ((?x11864 (stack_s x_0 x_1 w_1 x_MLOAD_0 2 ?x7475)))
 (let (($x8434 (= $x10052 (or (exc_halt_s 1) (not (bvsle (_ bv0 6) (bvadd (_ bv63 6) (sc_s 1))))))))
 (let (($x8697 (forall ((w (_ BitVec 256)) )(let ((?x10949 (storage_s x_0 x_1 w_1 x_MLOAD_0 1 w)))
 (let ((?x4391 (storage_s x_0 x_1 w_1 x_MLOAD_0 2 w)))
 (= ?x4391 ?x10949))))
 ))
 (let (($x7735 (forall ((n (_ BitVec 6)) )(let ((?x10569 (stack_s x_0 x_1 w_1 x_MLOAD_0 1 n)))
 (let ((?x6361 (stack_s x_0 x_1 w_1 x_MLOAD_0 2 n)))
 (or (bvsle (bvadd (_ bv63 6) (sc_s 1)) n) (= ?x6361 ?x10569)))))
 ))
 (let ((?x154 (sc_s 1)))
 (let (($x6634 (= ?x2272 ?x154)))
 (let ((?x5111 (used_gas_s x_0 x_1 w_1 x_MLOAD_0 2)))
 (let ((?x9696 (bvadd (_ bv63 6) ?x154)))
 (let ((?x1386 (stack_s x_0 x_1 w_1 x_MLOAD_0 1 ?x9696)))
 (let (($x7122 (not (= ((_ extract 6 6) (bvadd (_ bv1 7) (concat (_ bv0 1) ?x72))) (_ bv0 1)))))
 (let (($x8780 (exc_halt_s 1)))
 (let (($x7956 (forall ((w (_ BitVec 256)) )(let ((?x8499 (storage_s x_0 x_1 w_1 x_MLOAD_0 0 w)))
 (let ((?x10949 (storage_s x_0 x_1 w_1 x_MLOAD_0 1 w)))
 (= ?x10949 ?x8499))))
 ))
 (let (($x6674 (forall ((n (_ BitVec 6)) )(let ((?x7684 (stack_s x_0 x_1 w_1 x_MLOAD_0 0 n)))
 (let ((?x10569 (stack_s x_0 x_1 w_1 x_MLOAD_0 1 n)))
 (or (= ?x10569 ?x7684) (bvsle (bvadd (_ bv62 6) (sc_s 0)) n)))))
 ))
 (let (($x2838 (= ?x154 (bvadd (_ bv1 6) ?x72))))
 (let (($x6588 (= (stack_s x_0 x_1 w_1 x_MLOAD_0 1 (bvadd (_ bv63 6) ?x72)) (stack_s x_0 x_1 w_1 x_MLOAD_0 0 (bvadd (_ bv63 6) ?x72)))))
 (let ((?x4554 (bvadd (_ bv62 6) ?x72)))
 (let ((?x6939 (stack_s x_0 x_1 w_1 x_MLOAD_0 0 ?x4554)))
 (let (($x9391 (forall ((w0 (_ BitVec 256)) )(let (($x10659 (= (stack_s x_0 x_1 w_1 x_MLOAD_0 1 (bvadd (_ bv63 6) (sc_s 1))) w0)))
 (let ((?x9917 (f_MLOAD x_0 x_1 w_1 x_MLOAD_0 w0)))
 (= ?x9917 (ite $x10659 x_MLOAD_0 (_ bv0 256))))))
 ))
 (let (($x10735 (forall ((w (_ BitVec 256)) )(let ((?x8499 (storage_s x_0 x_1 w_1 x_MLOAD_0 0 w)))
 (= ?x8499 (_ bv0 256))))
 ))
 (let (($x3210 (= ?x2547 0)))
 (let (($x10373 (not $x57)))
 (let (($x3739 (= (stack_s x_0 x_1 w_1 x_MLOAD_0 0 (_ bv1 6)) x_1)))
 (let (($x8287 (= (stack_s x_0 x_1 w_1 x_MLOAD_0 0 (_ bv0 6)) x_0)))
 (let (($x11128 (= ?x72 (_ bv2 6))))
 (and $x11128 $x8287 $x3739 $x10373 $x3210 $x10735 $x9391 (= ?x1386 ?x6939) (= (stack_s x_0 x_1 w_1 x_MLOAD_0 1 ?x4554) ?x6939) $x6588 (= (used_gas_s x_0 x_1 w_1 x_MLOAD_0 1) (+ 3 ?x2547)) $x2838 $x6674 $x7956 (= $x8780 (or $x57 $x7122 (not (bvsle (_ bv0 6) ?x4554)))) (= ?x10644 (f_MLOAD x_0 x_1 w_1 x_MLOAD_0 ?x1386)) (= ?x5111 (+ 3 (used_gas_s x_0 x_1 w_1 x_MLOAD_0 1))) $x6634 $x7735 $x8697 $x8434 (= ?x1580 ?x11864) (= (stack_s x_0 x_1 w_1 x_MLOAD_0 3 ?x7475) ?x11864) $x16 (= (stack_s x_0 x_1 w_1 x_MLOAD_0 3 ?x6147) ?x10644) (= ?x3298 (+ 3 ?x5111)) $x11788 $x4559 $x11077 (= $x8103 (or (not (bvsle (_ bv0 6) ?x7475)) $x8424 $x10052)) $x7338 (= (stack_s x_0 x_1 w_1 x_MLOAD_0 4 (bvadd (_ bv62 6) ?x9433)) ?x1580) (= ?x7255 (+ 3 ?x3298)) $x1714 $x1489 $x1877 $x4038 (= (stack_s x_0 x_1 w_1 x_MLOAD_0 5 ?x9433) w_1) (= ?x5726 (+ 3 ?x7255)) $x891 $x2646 $x4445 (= $x1862 (or $x9175 $x6865)) $x9235 $x9192 $x8941 (= ?x926 ?x4319) $x6534 $x3209 $x2890 (= (stack_t x_0 x_1 w_1 x_MLOAD_0 1 (bvadd (_ bv63 6) ?x9666)) ?x7893) (= (stack_t x_0 x_1 w_1 x_MLOAD_0 1 ?x2527) ?x7893) $x8625 (= (used_gas_t x_0 x_1 w_1 x_MLOAD_0 1) (+ 3 ?x7899)) $x7751 $x11728 $x2005 (= $x4852 (or $x56 $x5945 (not (bvsle (_ bv0 6) ?x2527)))) (= (stack_t x_0 x_1 w_1 x_MLOAD_0 2 ?x9666) w_1) (= ?x7896 (+ 3 (used_gas_t x_0 x_1 w_1 x_MLOAD_0 1))) $x3033 $x8423 $x11355 $x2907 (= ?x9006 ?x6925) (= (stack_t x_0 x_1 w_1 x_MLOAD_0 3 ?x10779) ?x6925) $x3456 $x8184 $x3597 (= ?x7065 (+ 3 ?x7896)) $x11439 $x7236 $x1183 (= $x4112 (or $x2655 $x8412 $x8829)) $x8196 $x3257 $x11441 $x8177 $x273 $x10723 $x73 $x11050 $x58 $x10287 $x8765 (not (and $x3744 $x2821 $x4404 $x12004)))))))))))))))))))))))))))))))))))))))))))))))))))))))))))))))))))))))))))))))))))))))))))))))))))))))))))))))))))))))))
 )
(check-sat)
(get-proof)
